Fe80Si10B10 Amorphous Alloy - Random Packed Structure
1.0
 10.3852061024228846  0.0000000000000000  0.0000000000000000
0.0000000000000000   10.3852061024228846  0.0000000000000000
0.0000000000000000  0.0000000000000000   10.3852061024228846
Fe Si B
80 10 10
Direct
  0.5077376758096565    0.8205494731855784    0.2828389832828266
  0.9895233506365952    0.6399997598540929    0.5569497437746462
  0.4537237063292064    0.9538159275210801    0.8758529403781941
  0.4298881499898346    0.5799847811956820    0.6547056237030716
  0.8986630442700426    0.4853021331625131    0.4375000041650592
  0.2289417838111544    0.9054200130061280    0.8596354002537465
  0.8921795677048454    0.0869388326294162    0.4219218196852704
  0.8294046642529949    0.6185197523642461    0.8617069003107772
  0.2386859526158460    0.3957858467912545    0.6716902229599713
  0.3705299587344354    0.4433830860607016    0.9505551698514270
  0.0614177631534639    0.4731605319540283    0.1690792409543692
  0.8094304566778266    0.0064987596780610    0.8058192518328079
  0.0271020463403124    0.6427496480093358    0.1356994872305642
  0.9028055457325826    0.6155149159513805    0.3009498745655653
  0.2648801664980525    0.2466275076939834    0.5613681341631508
  0.0984178711519589    0.4026212821022688    0.3393026053949632
  0.1388768720383657    0.7903730608077492    0.0262840268082657
  0.4267640062609580    0.6651078630603089    0.3743010234355368
  0.2372057019275746    0.5719226923507389    0.5748119301786451
  0.9704006110222280    0.1785678161724636    0.9625343157615555
  0.0283734878988776    0.0454618032913420    0.6414537338243601
  0.7534751250593859    0.8534479505691046    0.9534303384701063
  0.6394267984578837    0.0250107552226669    0.2750293183691193
  0.4204463337729083    0.9403636707301830    0.6773179452727329
  0.7285450606527043    0.3136773141949912    0.6062088533061433
  0.7310262143051223    0.2683955380492253    0.8517131600193318
  0.0967163768334640    0.8474943663474598    0.6037260313668911
  0.1383740615161557    0.2312614797281868    0.6939498122990523
  0.5773521452567620    0.7045718362149235    0.0458243836556622
  0.9347062577364272    0.2042591994235364    0.7161918007894148
  0.2627416085229353    0.5845859902235405    0.8978228836024770
  0.4144410109977194    0.6297653807377137    0.1944352367397093
  0.5818904904939293    0.4051344675511140    0.5900363118407180
  0.5767712314773791    0.6511299774855999    0.7669590009163111
  0.2141926612089003    0.9476682675343469    0.4862709208727273
  0.9665002094627521    0.8601405968988218    0.7242167120755182
  0.9961213802400968    0.5291143450991370    0.9710783776136181
  0.9126278393448205    0.8705185698367669    0.2984447914486329
  0.7780170393142027    0.5132379576091917    0.1090540100038455
  0.6994649712461508    0.7668980983562408    0.1677891433678023
  0.9572130722067812    0.3365945451126268    0.0927458433801479
  0.3236016700850828    0.2480470836671450    0.2607852770654439
  0.4856411254507185    0.2137472991991817    0.4010402925494526
  0.1738498164464500    0.6536753131338843    0.3652967779910476
  0.5645779759079633    0.0686101528243559    0.7651573758885845
  0.9353082808316526    0.8388161106789165    0.4829319635359263
  0.2278982756515469    0.2893879636021072    0.0797919769236275
  0.8864147597406560    0.7714302904896246    0.0293562511728035
  0.4486135478331319    0.4218816398344042    0.2785451446669405
  0.9960964478550944    0.0732607210996330    0.2131543122670404
  0.2633890507510908    0.5005861130502983    0.1786518805301314
  0.2652030581721520    0.7840706019485694    0.4550083673391433
  0.6356844442644002    0.3648321789700842    0.3701809671168826
  0.1096491303506592    0.6274460417030900    0.7920793643629641
  0.6414817386076277    0.3996783843600609    0.9811496871982601
  0.6817103690265748    0.5369703304087952    0.2668251899525428
  0.3051908673386006    0.7953454991528618    0.2275954874077704
  0.8780095992040405    0.9469494452979941    0.0856534520678788
  0.7419500778394765    0.6706285044329995    0.3642214717812642
  0.5805182955240041    0.5752353982704261    0.4457785515049068
  0.9255751654990827    0.5384519970927919    0.7194299991448455
  0.7658136842971655    0.5212998128279821    0.6267484369817813
  0.4310511824063775    0.4235786230199208    0.4670246680366750
  0.6846142509898746    0.8428519201898096    0.7759999115462448
  0.5888111078979014    0.7721451736372288    0.4505045969589641
  0.1574327279394833    0.9607789032744504    0.0801114652405869
  0.5449414806032167    0.2204406220406967    0.5892656838759087
  0.6611830428533678    0.9336684584455133    0.4251389661042116
  0.5095262936764645    0.0909094121737939    0.0471163754247346
  0.4988286421026112    0.5303643475190842    0.0485716056319052
  0.0194767423858323    0.9290986162646171    0.8787218778231842
  0.2202173844515595    0.0709930860090325    0.6311029572700989
  0.0877950171373014    0.3822071218544083    0.9606056934445716
  0.0247863618981887    0.7365644717550821    0.3321854679464287
  0.4751363442188051    0.8497376946247319    0.0728282291845691
  0.3956319010606643    0.9145475897405435    0.4588518525873988
  0.9380021995657608    0.3095818874159609    0.3766793060563002
  0.3994005051403973    0.2193207591572833    0.9975376064951103
  0.3767198708225247    0.1622472120884505    0.8313450566891255
  0.2327908863610302    0.1010014294097291    0.2779736031100921
  0.2232107381488228    0.7364712141640124    0.6766994874229113
  0.3019458396916147    0.7228825284009974    0.0114357341941680
  0.2992343425283183    0.3363734521516784    0.8282893859573759
  0.3929351297394599    0.1138878236119981    0.5638505086287859
  0.0477494466188513    0.4198255437534431    0.7938991086394381
  0.4007775142807529    0.9623099301497540    0.2718330907501901
  0.5498035934949439    0.2650566289400591    0.8724330410852574
  0.2142368073704386    0.1323118487250250    0.9355142405806710
  0.8071282732743802    0.7297317866938179    0.5362280914547007
  0.3791262155641363    0.7520098235547849    0.8319242851552726
  0.7291267979503492    0.1634024937619284    0.3794554417576478
  0.9731157639793706    0.3785343772083535    0.5520406312732270
  0.4190212826298219    0.7475156689780508    0.5461323097338391
  0.5710430933252845    0.4726710263117941    0.7846194242907534
  0.0297972194380703    0.2186379748036034    0.5053552881033624
  0.7270813243426357    0.0789270060554679    0.6024532988302272
  0.4871904101337485    0.3308509316827234    0.1282151465959516
  0.8074969977666434    0.1904099143618777    0.0969308142288233
  0.6807268950506788    0.0315705133420994    0.9482051707843013
  0.6981393949882269    0.3402505165179919    0.1554794998117816
